<?xml version = "1.0" standalone="yes"?>
<!-- This file has been generated by DOcplex version 2.23.222  -->
<CPLEXSolution version="1.0">
 <header
   problemName="CVRP"
   objectiveValue="13795.8"
  />
 <variables>
  <variable name="x_0_2" index="1" value="1.00000"/>
  <variable name="x_0_4" index="3" value="1.00000"/>
  <variable name="x_0_5" index="4" value="1.00000"/>
  <variable name="x_0_6" index="5" value="1.00000"/>
  <variable name="x_0_8" index="7" value="1.00000"/>
  <variable name="x_0_9" index="8" value="1.00000"/>
  <variable name="x_0_11" index="10" value="1.00000"/>
  <variable name="x_0_12" index="11" value="1.00000"/>
  <variable name="x_0_14" index="13" value="1.00000"/>
  <variable name="x_0_16" index="15" value="1.00000"/>
  <variable name="x_0_17" index="16" value="1.00000"/>
  <variable name="x_1_0" index="20" value="1.00000"/>
  <variable name="x_2_18" index="57" value="1.00000"/>
  <variable name="x_3_0" index="60" value="1.00000"/>
  <variable name="x_4_0" index="80" value="1.00000"/>
  <variable name="x_5_3" index="103" value="1.00000"/>
  <variable name="x_6_7" index="126" value="1.00000"/>
  <variable name="x_7_0" index="140" value="1.00000"/>
  <variable name="x_8_10" index="169" value="1.00000"/>
  <variable name="x_9_20" index="199" value="1.00000"/>
  <variable name="x_10_0" index="200" value="1.00000"/>
  <variable name="x_11_0" index="220" value="1.00000"/>
  <variable name="x_12_1" index="241" value="1.00000"/>
  <variable name="x_13_0" index="260" value="1.00000"/>
  <variable name="x_14_0" index="280" value="1.00000"/>
  <variable name="x_15_0" index="300" value="1.00000"/>
  <variable name="x_16_13" index="333" value="1.00000"/>
  <variable name="x_17_0" index="340" value="1.00000"/>
  <variable name="x_18_0" index="360" value="1.00000"/>
  <variable name="x_19_15" index="395" value="1.00000"/>
  <variable name="x_20_19" index="419" value="1.00000"/>
  <variable name="u_1" index="420" value="26.00000"/>
  <variable name="u_2" index="421" value="21.00000"/>
  <variable name="u_3" index="422" value="26.00000"/>
  <variable name="u_4" index="423" value="26.00000"/>
  <variable name="u_5" index="424" value="18.00000"/>
  <variable name="u_6" index="425" value="13.00000"/>
  <variable name="u_7" index="426" value="21.00000"/>
  <variable name="u_8" index="427" value="16.00000"/>
  <variable name="u_9" index="428" value="1.00000"/>
  <variable name="u_10" index="429" value="18.00000"/>
  <variable name="u_11" index="430" value="26.00000"/>
  <variable name="u_12" index="431" value="19.00000"/>
  <variable name="u_13" index="432" value="23.00000"/>
  <variable name="u_14" index="433" value="25.00000"/>
  <variable name="u_15" index="434" value="26.00000"/>
  <variable name="u_16" index="435" value="5.00000"/>
  <variable name="u_17" index="436" value="19.00000"/>
  <variable name="u_18" index="437" value="23.00000"/>
  <variable name="u_19" index="438" value="10.00000"/>
  <variable name="u_20" index="439" value="4.00000"/>
 </variables>
</CPLEXSolution>
